NAME : local_2
TYPE : ATSP
DIMENSION : 9
EDGE_WEIGHT_TYPE : EXPLICIT
EDGE_WEIGHT_FORMAT : FULL_MATRIX
EDGE_WEIGHT_SECTION
0 575 746 416 531 571 415 798 819 
0 0 539 627 521 669 756 843 634 
0 539 0 794 315 678 621 602 193 
0 575 804 0 761 192 735 436 682 
0 521 315 744 0 956 362 812 468 
0 647 684 192 850 0 853 254 560 
0 756 621 736 362 1186 0 1198 706 
0 836 602 436 837 254 1008 0 445 
0 10000000 10000000 10000000 10000000 10000000 10000000 10000000 0 
EOF